Route 1: 0 40 27 67 81 49 29 97 85 15 50 0
Route 2: 0 84 18 46 25 92 8 22 7 1 9 13 24 0
Route 3: 0 70 11 51 4 41 39 19 86 10 68 0
Route 4: 0 88 12 44 55 69 90 54 74 52 0
Route 5: 0 34 57 5 17 58 78 66 0
Route 6: 0 45 14 96 71 59 47 80 0
Route 7: 0 100 75 30 35 53 87 56 26 28 0
Route 8: 0 93 95 2 94 76 82 0
Route 9: 0 23 89 83 21 43 64 99 3 73 36 63 32 0
Route 10: 0 72 61 62 33 38 42 20 16 98 37 77 0
Route 11: 0 91 31 60 6 65 79 48 0
